/*********************************************
 * OPL 12.2 Data
 * Author: mireia.roca
 * Creation Date: 04/02/16
*********************************************/
Id=8061;
c=2;
n=20;
N={1,2,3,4,5,6,7,8,9,10,11,12,13,14,15,16,17,18,19,20};
D={21,22};
Q=100;
CJ=[{2},{2},{1},{1},{1},{2},{1},{2},{2},{2},{1,2},{1,2},{2},{2},{2},{2},{1},{2},{2},{2}];
d=[
[0,17],[0,8],[5,0],[7,0],[14,0],[0,11],[19,0],[0,13],[0,6],[0,10],[17,10],[5,19],[0,18],[0,15],[0,9],[0,19],[6,0],[0,6],[0,12],[0,8]];
m=[4,4];
K=[{1,2,3,4},{5,6,7,8}];
KT={1,2,3,4,5,6,7,8};
cv=50;
cost = #[
<1,2>:37.64,
<1,3>:43.83,
<1,4>:6.32,
<1,5>:39.32,
<1,6>:48.83,
<1,7>:8.60,
<1,8>:4.12,
<1,9>:30.59,
<1,10>:44.72,
<1,11>:12.08,
<1,12>:7.07,
<1,13>:34.37,
<1,14>:48.01,
<1,15>:6.08,
<1,16>:5.83,
<1,17>:33.73,
<1,18>:47.20,
<1,19>:5.39,
<1,20>:7.81,
<1,21>:78.64,
<1,22>:63.13,
<2,1>:37.64,
<2,3>:65.92,
<2,4>:32.70,
<2,5>:6.71,
<2,6>:70.26,
<2,7>:35.85,
<2,8>:39.92,
<2,9>:7.81,
<2,10>:63.06,
<2,11>:25.71,
<2,12>:31.38,
<2,13>:6.32,
<2,14>:69.86,
<2,15>:31.62,
<2,16>:39.46,
<2,17>:5.00,
<2,18>:69.46,
<2,19>:33.62,
<2,20>:34.00,
<2,21>:50.60,
<2,22>:98.79,
<3,1>:43.83,
<3,2>:65.92,
<3,4>:49.04,
<3,5>:71.11,
<3,6>:5.00,
<3,7>:52.43,
<3,8>:46.65,
<3,9>:62.65,
<3,10>:6.40,
<3,11>:47.51,
<3,12>:48.92,
<3,13>:66.65,
<3,14>:4.24,
<3,15>:46.75,
<3,16>:38.01,
<3,17>:64.85,
<3,18>:3.61,
<3,19>:48.41,
<3,20>:51.40,
<3,21>:80.36,
<3,22>:80.36,
<4,1>:6.32,
<4,2>:32.70,
<4,3>:49.04,
<4,5>:33.73,
<4,6>:54.04,
<4,7>:5.10,
<4,8>:7.28,
<4,9>:25.30,
<4,10>:49.40,
<4,11>:8.60,
<4,12>:1.41,
<4,13>:28.86,
<4,14>:53.26,
<4,15>:3.00,
<4,16>:11.40,
<4,17>:28.46,
<4,18>:52.50,
<4,19>:1.00,
<4,20>:3.00,
<4,21>:76.40,
<4,22>:66.61,
<5,1>:39.32,
<5,2>:6.71,
<5,3>:71.11,
<5,4>:33.73,
<5,6>:75.59,
<5,7>:36.06,
<5,8>:41.00,
<5,9>:9.06,
<5,10>:68.60,
<5,11>:28.00,
<5,12>:32.56,
<5,13>:5.00,
<5,14>:75.13,
<5,15>:33.24,
<5,16>:42.00,
<5,17>:6.32,
<5,18>:74.69,
<5,19>:34.71,
<5,20>:34.48,
<5,21>:55.54,
<5,22>:98.41,
<6,1>:48.83,
<6,2>:70.26,
<6,3>:5.00,
<6,4>:54.04,
<6,5>:75.59,
<6,7>:57.43,
<6,8>:51.62,
<6,9>:67.23,
<6,10>:8.00,
<6,11>:52.40,
<6,12>:53.91,
<6,13>:71.20,
<6,14>:1.00,
<6,15>:51.74,
<6,16>:43.01,
<6,17>:69.35,
<6,18>:2.00,
<6,19>:53.41,
<6,20>:56.40,
<6,21>:82.23,
<6,22>:83.43,
<7,1>:8.60,
<7,2>:35.85,
<7,3>:52.43,
<7,4>:5.10,
<7,5>:36.06,
<7,6>:57.43,
<7,8>:6.71,
<7,9>:28.18,
<7,10>:53.24,
<7,11>:13.42,
<7,12>:6.32,
<7,13>:31.38,
<7,14>:56.61,
<7,15>:8.06,
<7,16>:14.42,
<7,17>:31.30,
<7,18>:55.80,
<7,19>:5.00,
<7,20>:2.24,
<7,21>:81.02,
<7,22>:62.97,
<8,1>:4.12,
<8,2>:39.92,
<8,3>:46.65,
<8,4>:7.28,
<8,5>:41.00,
<8,6>:51.62,
<8,7>:6.71,
<8,9>:32.57,
<8,10>:47.93,
<8,11>:15.00,
<8,12>:8.54,
<8,13>:36.14,
<8,14>:50.77,
<8,15>:8.60,
<8,16>:9.22,
<8,17>:35.74,
<8,18>:49.93,
<8,19>:6.32,
<8,20>:7.07,
<8,21>:82.33,
<8,22>:59.82,
<9,1>:30.59,
<9,2>:7.81,
<9,3>:62.65,
<9,4>:25.30,
<9,5>:9.06,
<9,6>:67.23,
<9,7>:28.18,
<9,8>:32.57,
<9,10>:60.46,
<9,11>:19.03,
<9,12>:24.04,
<9,13>:4.12,
<9,14>:66.73,
<9,15>:24.52,
<9,16>:33.02,
<9,17>:3.16,
<9,18>:66.24,
<9,19>:26.25,
<9,20>:26.40,
<9,21>:57.38,
<9,22>:91.07,
<10,1>:44.72,
<10,2>:63.06,
<10,3>:6.40,
<10,4>:49.40,
<10,5>:68.60,
<10,6>:8.00,
<10,7>:53.24,
<10,8>:47.93,
<10,9>:60.46,
<10,11>:46.75,
<10,12>:49.09,
<10,13>:64.35,
<10,14>:8.06,
<10,15>:46.87,
<10,16>:38.91,
<10,17>:62.43,
<10,18>:8.25,
<10,19>:48.88,
<10,20>:51.97,
<10,21>:74.46,
<10,22>:85.70,
<11,1>:12.08,
<11,2>:25.71,
<11,3>:47.51,
<11,4>:8.60,
<11,5>:28.00,
<11,6>:52.40,
<11,7>:13.42,
<11,8>:15.00,
<11,9>:19.03,
<11,10>:46.75,
<11,12>:7.21,
<11,13>:23.00,
<11,14>:51.74,
<11,15>:6.40,
<11,16>:14.00,
<11,17>:22.09,
<11,18>:51.09,
<11,19>:9.22,
<11,20>:11.18,
<11,21>:67.80,
<11,22>:74.81,
<12,1>:7.07,
<12,2>:31.38,
<12,3>:48.92,
<12,4>:1.41,
<12,5>:32.56,
<12,6>:53.91,
<12,7>:6.32,
<12,8>:8.54,
<12,9>:24.04,
<12,10>:49.09,
<12,11>:7.21,
<12,13>:27.66,
<12,14>:53.15,
<12,15>:2.24,
<12,16>:11.66,
<12,17>:27.20,
<12,18>:52.40,
<12,19>:2.24,
<12,20>:4.12,
<12,21>:75.00,
<12,22>:68.01,
<13,1>:34.37,
<13,2>:6.32,
<13,3>:66.65,
<13,4>:28.86,
<13,5>:5.00,
<13,6>:71.20,
<13,7>:31.38,
<13,8>:36.14,
<13,9>:4.12,
<13,10>:64.35,
<13,11>:23.00,
<13,12>:27.66,
<13,14>:70.71,
<13,15>:28.28,
<13,16>:37.00,
<13,17>:2.24,
<13,18>:70.24,
<13,19>:29.83,
<13,20>:29.73,
<13,21>:56.92,
<13,22>:94.02,
<14,1>:48.01,
<14,2>:69.86,
<14,3>:4.24,
<14,4>:53.26,
<14,5>:75.13,
<14,6>:1.00,
<14,7>:56.61,
<14,8>:50.77,
<14,9>:66.73,
<14,10>:8.06,
<14,11>:51.74,
<14,12>:53.15,
<14,13>:70.71,
<14,15>:50.99,
<14,16>:42.20,
<14,17>:68.88,
<14,18>:1.00,
<14,19>:52.63,
<14,20>:55.61,
<14,21>:82.46,
<14,22>:82.46,
<15,1>:6.08,
<15,2>:31.62,
<15,3>:46.75,
<15,4>:3.00,
<15,5>:33.24,
<15,6>:51.74,
<15,7>:8.06,
<15,8>:8.60,
<15,9>:24.52,
<15,10>:46.87,
<15,11>:6.40,
<15,12>:2.24,
<15,13>:28.28,
<15,14>:50.99,
<15,16>:9.85,
<15,17>:27.66,
<15,18>:50.25,
<15,19>:3.16,
<15,20>:6.00,
<15,21>:74.03,
<15,22>:68.41,
<16,1>:5.83,
<16,2>:39.46,
<16,3>:38.01,
<16,4>:11.40,
<16,5>:42.00,
<16,6>:43.01,
<16,7>:14.42,
<16,8>:9.22,
<16,9>:33.02,
<16,10>:38.91,
<16,11>:14.00,
<16,12>:11.66,
<16,13>:37.00,
<16,14>:42.20,
<16,15>:9.85,
<16,17>:36.06,
<16,18>:41.40,
<16,19>:10.63,
<16,20>:13.45,
<16,21>:77.08,
<16,22>:64.35,
<17,1>:33.73,
<17,2>:5.00,
<17,3>:64.85,
<17,4>:28.46,
<17,5>:6.32,
<17,6>:69.35,
<17,7>:31.30,
<17,8>:35.74,
<17,9>:3.16,
<17,10>:62.43,
<17,11>:22.09,
<17,12>:27.20,
<17,13>:2.24,
<17,14>:68.88,
<17,15>:27.66,
<17,16>:36.06,
<17,18>:68.43,
<17,19>:29.41,
<17,20>:29.55,
<17,21>:55.36,
<17,22>:94.15,
<18,1>:47.20,
<18,2>:69.46,
<18,3>:3.61,
<18,4>:52.50,
<18,5>:74.69,
<18,6>:2.00,
<18,7>:55.80,
<18,8>:49.93,
<18,9>:66.24,
<18,10>:8.25,
<18,11>:51.09,
<18,12>:52.40,
<18,13>:70.24,
<18,14>:1.00,
<18,15>:50.25,
<18,16>:41.40,
<18,17>:68.43,
<18,19>:51.86,
<18,20>:54.82,
<18,21>:82.71,
<18,22>:81.49,
<19,1>:5.39,
<19,2>:33.62,
<19,3>:48.41,
<19,4>:1.00,
<19,5>:34.71,
<19,6>:53.41,
<19,7>:5.00,
<19,8>:6.32,
<19,9>:26.25,
<19,10>:48.88,
<19,11>:9.22,
<19,12>:2.24,
<19,13>:29.83,
<19,14>:52.63,
<19,15>:3.16,
<19,16>:10.63,
<19,17>:29.41,
<19,18>:51.86,
<19,20>:3.16,
<19,21>:77.01,
<19,22>:65.80,
<20,1>:7.81,
<20,2>:34.00,
<20,3>:51.40,
<20,4>:3.00,
<20,5>:34.48,
<20,6>:56.40,
<20,7>:2.24,
<20,8>:7.07,
<20,9>:26.40,
<20,10>:51.97,
<20,11>:11.18,
<20,12>:4.12,
<20,13>:29.73,
<20,14>:55.61,
<20,15>:6.00,
<20,16>:13.45,
<20,17>:29.55,
<20,18>:54.82,
<20,19>:3.16,
<20,21>:78.82,
<20,22>:64.90,
<21,1>:78.64,
<21,2>:50.60,
<21,3>:80.36,
<21,4>:76.40,
<21,5>:55.54,
<21,6>:82.23,
<21,7>:81.02,
<21,8>:82.33,
<21,9>:57.38,
<21,10>:74.46,
<21,11>:67.80,
<21,12>:75.00,
<21,13>:56.92,
<21,14>:82.46,
<21,15>:74.03,
<21,16>:77.08,
<21,17>:55.36,
<21,18>:82.71,
<21,19>:77.01,
<21,20>:78.82,
<22,1>:63.13,
<22,2>:98.79,
<22,3>:80.36,
<22,4>:66.61,
<22,5>:98.41,
<22,6>:83.43,
<22,7>:62.97,
<22,8>:59.82,
<22,9>:91.07,
<22,10>:85.70,
<22,11>:74.81,
<22,12>:68.01,
<22,13>:94.02,
<22,14>:82.46,
<22,15>:68.41,
<22,16>:64.35,
<22,17>:94.15,
<22,18>:81.49,
<22,19>:65.80,
<22,20>:64.90,
]#;


/*********************************************
 * Author: Zimmermann, Julia. Carvalheira, Rafael.
 * Creation Date: 30/01/25
*********************************************/

SCCVRPSPD

p = [
0 12
0 12
15 0
10 0
5 0
0 16
12 0
0 13
0 14
0 6
16 11
8 15
0 16
0 19
0 10
0 13
7 0
0 6
0 8
0 10
]

SCCVRPSPDM-M

m2m[1, 12, 2] = 17
m2m[2, 21, 2] = 8
m2m[3, 11, 1] = 5
m2m[4, 21, 1] = 7
m2m[5, 21, 1] = 14
m2m[6, 21, 2] = 11
m2m[7, 11, 1] = 19
m2m[8, 21, 2] = 13
m2m[9, 12, 2] = 4
m2m[9, 21, 2] = 2
m2m[10, 12, 2] = 3
m2m[10, 21, 2] = 7
m2m[11, 21, 2] = 10
m2m[12, 21, 1] = 5
m2m[13, 21, 2] = 18
m2m[14, 21, 2] = 15
m2m[15, 21, 2] = 9
m2m[16, 12, 2] = 19
m2m[17, 21, 1] = 6
m2m[18, 21, 2] = 6
m2m[19, 12, 2] = 5
m2m[19, 21, 2] = 7
m2m[20, 12, 2] = 3
m2m[20, 21, 2] = 5
m2m[21, 2, 2] = 12
m2m[21, 4, 1] = 10
m2m[21, 5, 1] = 5
m2m[21, 6, 2] = 16
m2m[21, 8, 2] = 13
m2m[21, 11, 2] = 11
m2m[21, 12, 1] = 8
m2m[21, 13, 2] = 16
m2m[21, 14, 2] = 19
m2m[21, 15, 2] = 10
m2m[21, 17, 1] = 7
m2m[21, 18, 2] = 6
